set Targyak := DTR IRB KXD;

param :
            vizsganap   szukseges_ora :=
    DTR     4           25
    IRB     7           20
    KXD     10          35
    ;


set Napok := 1 2 3 4 5 6 7 8 9 10;

param szabadido:=
    1   20
    2   10
    3   0
    4   9
    5   6
    6   4
    7   8
    8   10
    9   15
    10  4
    ;
